5 5
3 27 2 2 4 97 0 80 1 39
1 86 2 56 0 13 3 56 4 66
2 78 0 56 4 28 1 64 3 71
2 82 1 64 4 56 3 41 0 41
2 4 3 57 0 30 1 88 4 84
-1
0 1 4 5
0 1 3 4 5
0 2 3 5
0 1 3 4 5
0 1 2 4 5
-2
40 274 335
92 193 254 359
152 208 372
103 277 349 399
4 66 189 265

415 12
22 11 7 3 19
5 16 23 13 4
15 1 20 10 6
0 21 8 18 14
2 17 12 24 9
